/*********************************************
 * OPL 12.8.0.0 Data
 * Author: brandon
 * Creation Date: 12 févr. 2019 at 13:52:45
 *********************************************/

lienCap = [1,2];
capacity = [0.3,0.2,0.4,0.1,0.2,0.2,0.5,0.1,0.1,0.6];
cost = [200,200,250,150,200,200,700,150,150,900];

lienCost = [1,1.3];

